proyfinal/src/viki/013/experimentInOfficeAgust.take6.output/077e7bdb-9b17-47e8-b77e-5d1dcc8ba2f3.als.dat
{'cnf.clauses': '118081',
 'cnf.totvars': '69608',
 'conflict literals': '36',
 'conflicts': '18',
 'decisions': '4897',
 'memused.mb': '14.53',
 'outcome': 'UNSAT',
 'propagations': '29331',
 'restarts': '1',
 'solver.msecs': 35,
 'task.msecs': 82}
