proyfinal/src/viki/013/experimentInOfficeAgust.take6.output/077e7bdb-9b17-47e8-b77e-5d1dcc8ba2f3.als.out
Reading from standard input... Use '--help' for help.
============================[ Problem Statistics ]=============================
|                                                                             |
|  Number of variables:         69608                                         |
|  Number of clauses:          118081                                         |
|  Parse time:                   0.02 s                                       |
|                                                                             |
============================[ Search Statistics ]==============================
| Conflicts |          ORIGINAL         |          LEARNT          | Progress |
|           |    Vars  Clauses Literals |    Limit  Clauses Lit/Cl |          |
===============================================================================
===============================================================================
restarts              : 1
conflicts             : 18             (511 /sec)
decisions             : 4897           (0.00 % random) (139009 /sec)
propagations          : 29331          (832605 /sec)
conflict literals     : 36             (0.00 % deleted)
Memory used           : 14.53 MB
CPU time              : 0.035228 s

UNSATISFIABLE
